      18        8 
       3       56 
      70       54 
      10       48 
      28        9 
      30       27 
      39       72 
      43       62 
      41       59 
      63       16 
      50       17 
      20       13 
      58       69 
      66       64 
      25       37 
      15        4 
       5       24 
      55       61 
      32       19 
      52       26 
      36       11 
      45       42 
      68       57 
      22       46 
      49       65 
      14        6 
      67       47 
      12       21 
      31       33 
       2       35 
      38       60 
      40       71 
      44        7 
      51       23 
      29       53 
       1       34 
